Minimize
 obj: + 138.2 x_user1_load0_hour0 + 162.9 x_user1_load0_hour1 
 + 179.8 x_user1_load0_hour2 + 204.8 x_user1_load0_hour3 
 + 218.2 x_user1_load0_hour4 + 225.9 x_user1_load0_hour5 
 + 225.8 x_user1_load0_hour6 + 231.8 x_user1_load0_hour7 
 + 236.2 x_user1_load0_hour8 + 230.9 x_user1_load0_hour9 
 + 225.8 x_user1_load0_hour10 + 213.8 x_user1_load0_hour11 
 + 199.2 x_user1_load0_hour12 + 178.9 x_user1_load0_hour13 
 + 142.8 x_user1_load1_hour0 + 158.6 x_user1_load1_hour1 
 + 182.4 x_user1_load1_hour2 + 204.4 x_user1_load1_hour3 
 + 222.8 x_user1_load1_hour4 + 223.6 x_user1_load1_hour5 
 + 224.4 x_user1_load1_hour6 + 235.4 x_user1_load1_hour7 
 + 234.8 x_user1_load1_hour8 + 232.6 x_user1_load1_hour9 
 + 226.4 x_user1_load1_hour10 + 214.4 x_user1_load1_hour11 
 + 198.8 x_user1_load1_hour12 + 183.6 x_user1_load1_hour13 
 + 150.4 x_user1_load1_hour14 + 159.3 x_user1_load2_hour0 
 + 194 x_user1_load2_hour1 + 209.4 x_user1_load2_hour2 
 + 240.2 x_user1_load2_hour3 + 251.8 x_user1_load2_hour4 
 + 265 x_user1_load2_hour5 + 264.9 x_user1_load2_hour6 
 + 268.2 x_user1_load2_hour7 + 276.3 x_user1_load2_hour8 
 + 268 x_user1_load2_hour9 + 262.4 x_user1_load2_hour10 
 + 248.2 x_user1_load2_hour11 + 231.8 x_user1_load2_hour12 
 + 204 x_user1_load2_hour13 + 92.5 x_user1_load3_hour0 
 + 110.4 x_user1_load3_hour1 + 120.8 x_user1_load3_hour2 
 + 137.6 x_user1_load3_hour3 + 145 x_user1_load3_hour4 
 + 150.9 x_user1_load3_hour5 + 151.3 x_user1_load3_hour6 
 + 154.1 x_user1_load3_hour7 + 157.5 x_user1_load3_hour8 
 + 153.4 x_user1_load3_hour9 + 149.8 x_user1_load3_hour10 
 + 141.6 x_user1_load3_hour11 + 132 x_user1_load3_hour12 
 + 116.9 x_user1_load3_hour13 + 85.7 x_user1_load4_hour0 
 + 103.9 x_user1_load4_hour1 + 112.6 x_user1_load4_hour2 
 + 131.6 x_user1_load4_hour3 + 143.2 x_user1_load4_hour4 
 + 151.4 x_user1_load4_hour5 + 148.1 x_user1_load4_hour6 
 + 153.1 x_user1_load4_hour7 + 158.7 x_user1_load4_hour8 
 + 154.9 x_user1_load4_hour9 + 153.6 x_user1_load4_hour10 
 + 146.6 x_user1_load4_hour11 + 137.2 x_user1_load4_hour12 
 + 126.4 x_user1_load4_hour13 + 112.1 x_user1_load4_hour14 
 + 304.7 x_user1_load5_hour0 + 349.6 x_user1_load5_hour1 
 + 359.8 x_user1_load5_hour2 + 389.6 x_user1_load5_hour3 
 + 412.7 x_user1_load5_hour4 + 422.1 x_user1_load5_hour5 
 + 418.8 x_user1_load5_hour6 + 417.1 x_user1_load5_hour7 
 + 414.7 x_user1_load5_hour8 + 394.6 x_user1_load5_hour9 
 + 378.8 x_user1_load5_hour10 + 336.6 x_user1_load5_hour11 
 + 85.7 x_user1_load6_hour0 + 103.9 x_user1_load6_hour1 
 + 112.6 x_user1_load6_hour2 + 131.6 x_user1_load6_hour3 
 + 143.2 x_user1_load6_hour4 + 151.4 x_user1_load6_hour5 
 + 148.1 x_user1_load6_hour6 + 153.1 x_user1_load6_hour7 
 + 158.7 x_user1_load6_hour8 + 154.9 x_user1_load6_hour9 
 + 153.6 x_user1_load6_hour10 + 146.6 x_user1_load6_hour11 
 + 137.2 x_user1_load6_hour12 + 126.4 x_user1_load6_hour13 
 + 112.1 x_user1_load6_hour14 + 97.1 x_user1_load7_hour0 
 + 106.1 x_user1_load7_hour1 + 123.4 x_user1_load7_hour2 
 + 137.2 x_user1_load7_hour3 + 149.6 x_user1_load7_hour4 
 + 148.6 x_user1_load7_hour5 + 149.9 x_user1_load7_hour6 
 + 157.7 x_user1_load7_hour7 + 156.1 x_user1_load7_hour8 
 + 155.1 x_user1_load7_hour9 + 150.4 x_user1_load7_hour10 
 + 142.2 x_user1_load7_hour11 + 131.6 x_user1_load7_hour12 
 + 121.6 x_user1_load7_hour13 + 97.9 x_user1_load7_hour14 

Subject To 
 load_load0_scheduled: + 1 x_user1_load0_hour0 + 1 x_user1_load0_hour1 
 + 1 x_user1_load0_hour2 + 1 x_user1_load0_hour3 + 1 x_user1_load0_hour4 
 + 1 x_user1_load0_hour5 + 1 x_user1_load0_hour6 + 1 x_user1_load0_hour7 
 + 1 x_user1_load0_hour8 + 1 x_user1_load0_hour9 + 1 x_user1_load0_hour10 
 + 1 x_user1_load0_hour11 + 1 x_user1_load0_hour12 + 1 x_user1_load0_hour13 
  = 1.0
 load_load1_scheduled: + 1 x_user1_load1_hour0 + 1 x_user1_load1_hour1 
 + 1 x_user1_load1_hour2 + 1 x_user1_load1_hour3 + 1 x_user1_load1_hour4 
 + 1 x_user1_load1_hour5 + 1 x_user1_load1_hour6 + 1 x_user1_load1_hour7 
 + 1 x_user1_load1_hour8 + 1 x_user1_load1_hour9 + 1 x_user1_load1_hour10 
 + 1 x_user1_load1_hour11 + 1 x_user1_load1_hour12 + 1 x_user1_load1_hour13 
 + 1 x_user1_load1_hour14  = 1.0
 load_load2_scheduled: + 1 x_user1_load2_hour0 + 1 x_user1_load2_hour1 
 + 1 x_user1_load2_hour2 + 1 x_user1_load2_hour3 + 1 x_user1_load2_hour4 
 + 1 x_user1_load2_hour5 + 1 x_user1_load2_hour6 + 1 x_user1_load2_hour7 
 + 1 x_user1_load2_hour8 + 1 x_user1_load2_hour9 + 1 x_user1_load2_hour10 
 + 1 x_user1_load2_hour11 + 1 x_user1_load2_hour12 + 1 x_user1_load2_hour13 
  = 1.0
 load_load3_scheduled: + 1 x_user1_load3_hour0 + 1 x_user1_load3_hour1 
 + 1 x_user1_load3_hour2 + 1 x_user1_load3_hour3 + 1 x_user1_load3_hour4 
 + 1 x_user1_load3_hour5 + 1 x_user1_load3_hour6 + 1 x_user1_load3_hour7 
 + 1 x_user1_load3_hour8 + 1 x_user1_load3_hour9 + 1 x_user1_load3_hour10 
 + 1 x_user1_load3_hour11 + 1 x_user1_load3_hour12 + 1 x_user1_load3_hour13 
  = 1.0
 load_load4_scheduled: + 1 x_user1_load4_hour0 + 1 x_user1_load4_hour1 
 + 1 x_user1_load4_hour2 + 1 x_user1_load4_hour3 + 1 x_user1_load4_hour4 
 + 1 x_user1_load4_hour5 + 1 x_user1_load4_hour6 + 1 x_user1_load4_hour7 
 + 1 x_user1_load4_hour8 + 1 x_user1_load4_hour9 + 1 x_user1_load4_hour10 
 + 1 x_user1_load4_hour11 + 1 x_user1_load4_hour12 + 1 x_user1_load4_hour13 
 + 1 x_user1_load4_hour14  = 1.0
 load_load5_scheduled: + 1 x_user1_load5_hour0 + 1 x_user1_load5_hour1 
 + 1 x_user1_load5_hour2 + 1 x_user1_load5_hour3 + 1 x_user1_load5_hour4 
 + 1 x_user1_load5_hour5 + 1 x_user1_load5_hour6 + 1 x_user1_load5_hour7 
 + 1 x_user1_load5_hour8 + 1 x_user1_load5_hour9 + 1 x_user1_load5_hour10 
 + 1 x_user1_load5_hour11  = 1.0
 load_load6_scheduled: + 1 x_user1_load6_hour0 + 1 x_user1_load6_hour1 
 + 1 x_user1_load6_hour2 + 1 x_user1_load6_hour3 + 1 x_user1_load6_hour4 
 + 1 x_user1_load6_hour5 + 1 x_user1_load6_hour6 + 1 x_user1_load6_hour7 
 + 1 x_user1_load6_hour8 + 1 x_user1_load6_hour9 + 1 x_user1_load6_hour10 
 + 1 x_user1_load6_hour11 + 1 x_user1_load6_hour12 + 1 x_user1_load6_hour13 
 + 1 x_user1_load6_hour14  = 1.0
 load_load7_scheduled: + 1 x_user1_load7_hour0 + 1 x_user1_load7_hour1 
 + 1 x_user1_load7_hour2 + 1 x_user1_load7_hour3 + 1 x_user1_load7_hour4 
 + 1 x_user1_load7_hour5 + 1 x_user1_load7_hour6 + 1 x_user1_load7_hour7 
 + 1 x_user1_load7_hour8 + 1 x_user1_load7_hour9 + 1 x_user1_load7_hour10 
 + 1 x_user1_load7_hour11 + 1 x_user1_load7_hour12 + 1 x_user1_load7_hour13 
 + 1 x_user1_load7_hour14  = 1.0
 MaxLoadConnection_user1_0: + 3 x_user1_load0_hour0 + 2 x_user1_load1_hour0 
 + 4 x_user1_load2_hour0 + 2 x_user1_load3_hour0 + 3 x_user1_load4_hour0 
 + 4 x_user1_load5_hour0 + 3 x_user1_load6_hour0 + 1 x_user1_load7_hour0 
  <= 4.0
 MaxLoadConnection_user1_1: + 3 x_user1_load0_hour1 + 2 x_user1_load0_hour0 
 + 2 x_user1_load1_hour1 + 4 x_user1_load1_hour0 + 4 x_user1_load2_hour1 
 + 1 x_user1_load2_hour0 + 2 x_user1_load3_hour1 + 1 x_user1_load3_hour0 
 + 3 x_user1_load4_hour1 + 1 x_user1_load4_hour0 + 4 x_user1_load5_hour1 
 + 1 x_user1_load5_hour0 + 3 x_user1_load6_hour1 + 1 x_user1_load6_hour0 
 + 1 x_user1_load7_hour1 + 3 x_user1_load7_hour0  <= 4.0
 MaxLoadConnection_user1_2: + 3 x_user1_load0_hour2 + 2 x_user1_load0_hour1 
 + 1 x_user1_load0_hour0 + 2 x_user1_load1_hour2 + 4 x_user1_load1_hour1 
 + 4 x_user1_load2_hour2 + 1 x_user1_load2_hour1 + 2 x_user1_load2_hour0 
 + 2 x_user1_load3_hour2 + 1 x_user1_load3_hour1 + 1 x_user1_load3_hour0 
 + 3 x_user1_load4_hour2 + 1 x_user1_load4_hour1 + 4 x_user1_load5_hour2 
 + 1 x_user1_load5_hour1 + 1 x_user1_load5_hour0 + 3 x_user1_load6_hour2 
 + 1 x_user1_load6_hour1 + 1 x_user1_load7_hour2 + 3 x_user1_load7_hour1 
  <= 4.0
 MaxLoadConnection_user1_3: + 3 x_user1_load0_hour3 + 2 x_user1_load0_hour2 
 + 1 x_user1_load0_hour1 + 2 x_user1_load1_hour3 + 4 x_user1_load1_hour2 
 + 4 x_user1_load2_hour3 + 1 x_user1_load2_hour2 + 2 x_user1_load2_hour1 
 + 2 x_user1_load3_hour3 + 1 x_user1_load3_hour2 + 1 x_user1_load3_hour1 
 + 3 x_user1_load4_hour3 + 1 x_user1_load4_hour2 + 4 x_user1_load5_hour3 
 + 1 x_user1_load5_hour2 + 1 x_user1_load5_hour1 + 1 x_user1_load5_hour0 
 + 3 x_user1_load6_hour3 + 1 x_user1_load6_hour2 + 1 x_user1_load7_hour3 
 + 3 x_user1_load7_hour2  <= 4.0
 MaxLoadConnection_user1_4: + 3 x_user1_load0_hour4 + 2 x_user1_load0_hour3 
 + 1 x_user1_load0_hour2 + 2 x_user1_load1_hour4 + 4 x_user1_load1_hour3 
 + 4 x_user1_load2_hour4 + 1 x_user1_load2_hour3 + 2 x_user1_load2_hour2 
 + 2 x_user1_load3_hour4 + 1 x_user1_load3_hour3 + 1 x_user1_load3_hour2 
 + 3 x_user1_load4_hour4 + 1 x_user1_load4_hour3 + 4 x_user1_load5_hour4 
 + 1 x_user1_load5_hour3 + 1 x_user1_load5_hour2 + 1 x_user1_load5_hour1 
 + 4 x_user1_load5_hour0 + 3 x_user1_load6_hour4 + 1 x_user1_load6_hour3 
 + 1 x_user1_load7_hour4 + 3 x_user1_load7_hour3  <= 4.0
 MaxLoadConnection_user1_5: + 3 x_user1_load0_hour5 + 2 x_user1_load0_hour4 
 + 1 x_user1_load0_hour3 + 2 x_user1_load1_hour5 + 4 x_user1_load1_hour4 
 + 4 x_user1_load2_hour5 + 1 x_user1_load2_hour4 + 2 x_user1_load2_hour3 
 + 2 x_user1_load3_hour5 + 1 x_user1_load3_hour4 + 1 x_user1_load3_hour3 
 + 3 x_user1_load4_hour5 + 1 x_user1_load4_hour4 + 4 x_user1_load5_hour5 
 + 1 x_user1_load5_hour4 + 1 x_user1_load5_hour3 + 1 x_user1_load5_hour2 
 + 4 x_user1_load5_hour1 + 3 x_user1_load6_hour5 + 1 x_user1_load6_hour4 
 + 1 x_user1_load7_hour5 + 3 x_user1_load7_hour4  <= 4.0
 MaxLoadConnection_user1_6: + 3 x_user1_load0_hour6 + 2 x_user1_load0_hour5 
 + 1 x_user1_load0_hour4 + 2 x_user1_load1_hour6 + 4 x_user1_load1_hour5 
 + 4 x_user1_load2_hour6 + 1 x_user1_load2_hour5 + 2 x_user1_load2_hour4 
 + 2 x_user1_load3_hour6 + 1 x_user1_load3_hour5 + 1 x_user1_load3_hour4 
 + 3 x_user1_load4_hour6 + 1 x_user1_load4_hour5 + 4 x_user1_load5_hour6 
 + 1 x_user1_load5_hour5 + 1 x_user1_load5_hour4 + 1 x_user1_load5_hour3 
 + 4 x_user1_load5_hour2 + 3 x_user1_load6_hour6 + 1 x_user1_load6_hour5 
 + 1 x_user1_load7_hour6 + 3 x_user1_load7_hour5  <= 4.0
 MaxLoadConnection_user1_7: + 3 x_user1_load0_hour7 + 2 x_user1_load0_hour6 
 + 1 x_user1_load0_hour5 + 2 x_user1_load1_hour7 + 4 x_user1_load1_hour6 
 + 4 x_user1_load2_hour7 + 1 x_user1_load2_hour6 + 2 x_user1_load2_hour5 
 + 2 x_user1_load3_hour7 + 1 x_user1_load3_hour6 + 1 x_user1_load3_hour5 
 + 3 x_user1_load4_hour7 + 1 x_user1_load4_hour6 + 4 x_user1_load5_hour7 
 + 1 x_user1_load5_hour6 + 1 x_user1_load5_hour5 + 1 x_user1_load5_hour4 
 + 4 x_user1_load5_hour3 + 3 x_user1_load6_hour7 + 1 x_user1_load6_hour6 
 + 1 x_user1_load7_hour7 + 3 x_user1_load7_hour6  <= 4.0
 MaxLoadConnection_user1_8: + 3 x_user1_load0_hour8 + 2 x_user1_load0_hour7 
 + 1 x_user1_load0_hour6 + 2 x_user1_load1_hour8 + 4 x_user1_load1_hour7 
 + 4 x_user1_load2_hour8 + 1 x_user1_load2_hour7 + 2 x_user1_load2_hour6 
 + 2 x_user1_load3_hour8 + 1 x_user1_load3_hour7 + 1 x_user1_load3_hour6 
 + 3 x_user1_load4_hour8 + 1 x_user1_load4_hour7 + 4 x_user1_load5_hour8 
 + 1 x_user1_load5_hour7 + 1 x_user1_load5_hour6 + 1 x_user1_load5_hour5 
 + 4 x_user1_load5_hour4 + 3 x_user1_load6_hour8 + 1 x_user1_load6_hour7 
 + 1 x_user1_load7_hour8 + 3 x_user1_load7_hour7  <= 4.0
 MaxLoadConnection_user1_9: + 3 x_user1_load0_hour9 + 2 x_user1_load0_hour8 
 + 1 x_user1_load0_hour7 + 2 x_user1_load1_hour9 + 4 x_user1_load1_hour8 
 + 4 x_user1_load2_hour9 + 1 x_user1_load2_hour8 + 2 x_user1_load2_hour7 
 + 2 x_user1_load3_hour9 + 1 x_user1_load3_hour8 + 1 x_user1_load3_hour7 
 + 3 x_user1_load4_hour9 + 1 x_user1_load4_hour8 + 4 x_user1_load5_hour9 
 + 1 x_user1_load5_hour8 + 1 x_user1_load5_hour7 + 1 x_user1_load5_hour6 
 + 4 x_user1_load5_hour5 + 3 x_user1_load6_hour9 + 1 x_user1_load6_hour8 
 + 1 x_user1_load7_hour9 + 3 x_user1_load7_hour8  <= 4.0
 MaxLoadConnection_user1_10: + 3 x_user1_load0_hour10 + 2 x_user1_load0_hour9 
 + 1 x_user1_load0_hour8 + 2 x_user1_load1_hour10 + 4 x_user1_load1_hour9 
 + 4 x_user1_load2_hour10 + 1 x_user1_load2_hour9 + 2 x_user1_load2_hour8 
 + 2 x_user1_load3_hour10 + 1 x_user1_load3_hour9 + 1 x_user1_load3_hour8 
 + 3 x_user1_load4_hour10 + 1 x_user1_load4_hour9 + 4 x_user1_load5_hour10 
 + 1 x_user1_load5_hour9 + 1 x_user1_load5_hour8 + 1 x_user1_load5_hour7 
 + 4 x_user1_load5_hour6 + 3 x_user1_load6_hour10 + 1 x_user1_load6_hour9 
 + 1 x_user1_load7_hour10 + 3 x_user1_load7_hour9  <= 4.0
 MaxLoadConnection_user1_11: + 3 x_user1_load0_hour11 + 2 x_user1_load0_hour10 
 + 1 x_user1_load0_hour9 + 2 x_user1_load1_hour11 + 4 x_user1_load1_hour10 
 + 4 x_user1_load2_hour11 + 1 x_user1_load2_hour10 + 2 x_user1_load2_hour9 
 + 2 x_user1_load3_hour11 + 1 x_user1_load3_hour10 + 1 x_user1_load3_hour9 
 + 3 x_user1_load4_hour11 + 1 x_user1_load4_hour10 + 4 x_user1_load5_hour11 
 + 1 x_user1_load5_hour10 + 1 x_user1_load5_hour9 + 1 x_user1_load5_hour8 
 + 4 x_user1_load5_hour7 + 3 x_user1_load6_hour11 + 1 x_user1_load6_hour10 
 + 1 x_user1_load7_hour11 + 3 x_user1_load7_hour10  <= 4.0
 MaxLoadConnection_user1_12: + 3 x_user1_load0_hour12 + 2 x_user1_load0_hour11 
 + 1 x_user1_load0_hour10 + 2 x_user1_load1_hour12 + 4 x_user1_load1_hour11 
 + 4 x_user1_load2_hour12 + 1 x_user1_load2_hour11 + 2 x_user1_load2_hour10 
 + 2 x_user1_load3_hour12 + 1 x_user1_load3_hour11 + 1 x_user1_load3_hour10 
 + 3 x_user1_load4_hour12 + 1 x_user1_load4_hour11 + 1 x_user1_load5_hour11 
 + 1 x_user1_load5_hour10 + 1 x_user1_load5_hour9 + 4 x_user1_load5_hour8 
 + 3 x_user1_load6_hour12 + 1 x_user1_load6_hour11 + 1 x_user1_load7_hour12 
 + 3 x_user1_load7_hour11  <= 4.0
 MaxLoadConnection_user1_13: + 3 x_user1_load0_hour13 + 2 x_user1_load0_hour12 
 + 1 x_user1_load0_hour11 + 2 x_user1_load1_hour13 + 4 x_user1_load1_hour12 
 + 4 x_user1_load2_hour13 + 1 x_user1_load2_hour12 + 2 x_user1_load2_hour11 
 + 2 x_user1_load3_hour13 + 1 x_user1_load3_hour12 + 1 x_user1_load3_hour11 
 + 3 x_user1_load4_hour13 + 1 x_user1_load4_hour12 + 1 x_user1_load5_hour11 
 + 1 x_user1_load5_hour10 + 4 x_user1_load5_hour9 + 3 x_user1_load6_hour13 
 + 1 x_user1_load6_hour12 + 1 x_user1_load7_hour13 + 3 x_user1_load7_hour12 
  <= 4.0
 MaxLoadConnection_user1_14: + 2 x_user1_load0_hour13 + 1 x_user1_load0_hour12 
 + 2 x_user1_load1_hour14 + 4 x_user1_load1_hour13 + 1 x_user1_load2_hour13 
 + 2 x_user1_load2_hour12 + 1 x_user1_load3_hour13 + 1 x_user1_load3_hour12 
 + 3 x_user1_load4_hour14 + 1 x_user1_load4_hour13 + 1 x_user1_load5_hour11 
 + 4 x_user1_load5_hour10 + 3 x_user1_load6_hour14 + 1 x_user1_load6_hour13 
 + 1 x_user1_load7_hour14 + 3 x_user1_load7_hour13  <= 4.0
 MaxLoadConnection_user1_15: + 1 x_user1_load0_hour13 + 4 x_user1_load1_hour14 
 + 2 x_user1_load2_hour13 + 1 x_user1_load3_hour13 + 1 x_user1_load4_hour14 
 + 4 x_user1_load5_hour11 + 1 x_user1_load6_hour14 + 3 x_user1_load7_hour14 
  <= 4.0

Bounds

Binary
 x_user1_load0_hour0 x_user1_load0_hour1 x_user1_load0_hour2
  x_user1_load0_hour3 x_user1_load0_hour4 x_user1_load0_hour5
  x_user1_load0_hour6 x_user1_load0_hour7 x_user1_load0_hour8
  x_user1_load0_hour9 x_user1_load0_hour10 x_user1_load0_hour11
  x_user1_load0_hour12 x_user1_load0_hour13 x_user1_load1_hour0
  x_user1_load1_hour1 x_user1_load1_hour2 x_user1_load1_hour3
  x_user1_load1_hour4 x_user1_load1_hour5 x_user1_load1_hour6
  x_user1_load1_hour7 x_user1_load1_hour8 x_user1_load1_hour9
  x_user1_load1_hour10 x_user1_load1_hour11 x_user1_load1_hour12
  x_user1_load1_hour13 x_user1_load1_hour14 x_user1_load2_hour0
  x_user1_load2_hour1 x_user1_load2_hour2 x_user1_load2_hour3
  x_user1_load2_hour4 x_user1_load2_hour5 x_user1_load2_hour6
  x_user1_load2_hour7 x_user1_load2_hour8 x_user1_load2_hour9
  x_user1_load2_hour10 x_user1_load2_hour11 x_user1_load2_hour12
  x_user1_load2_hour13 x_user1_load3_hour0 x_user1_load3_hour1
  x_user1_load3_hour2 x_user1_load3_hour3 x_user1_load3_hour4
  x_user1_load3_hour5 x_user1_load3_hour6 x_user1_load3_hour7
  x_user1_load3_hour8 x_user1_load3_hour9 x_user1_load3_hour10
  x_user1_load3_hour11 x_user1_load3_hour12 x_user1_load3_hour13
  x_user1_load4_hour0 x_user1_load4_hour1 x_user1_load4_hour2
  x_user1_load4_hour3 x_user1_load4_hour4 x_user1_load4_hour5
  x_user1_load4_hour6 x_user1_load4_hour7 x_user1_load4_hour8
  x_user1_load4_hour9 x_user1_load4_hour10 x_user1_load4_hour11
  x_user1_load4_hour12 x_user1_load4_hour13 x_user1_load4_hour14
  x_user1_load5_hour0 x_user1_load5_hour1 x_user1_load5_hour2
  x_user1_load5_hour3 x_user1_load5_hour4 x_user1_load5_hour5
  x_user1_load5_hour6 x_user1_load5_hour7 x_user1_load5_hour8
  x_user1_load5_hour9 x_user1_load5_hour10 x_user1_load5_hour11
  x_user1_load6_hour0 x_user1_load6_hour1 x_user1_load6_hour2
  x_user1_load6_hour3 x_user1_load6_hour4 x_user1_load6_hour5
  x_user1_load6_hour6 x_user1_load6_hour7 x_user1_load6_hour8
  x_user1_load6_hour9 x_user1_load6_hour10 x_user1_load6_hour11
  x_user1_load6_hour12 x_user1_load6_hour13 x_user1_load6_hour14
  x_user1_load7_hour0 x_user1_load7_hour1 x_user1_load7_hour2
  x_user1_load7_hour3 x_user1_load7_hour4 x_user1_load7_hour5
  x_user1_load7_hour6 x_user1_load7_hour7 x_user1_load7_hour8
  x_user1_load7_hour9 x_user1_load7_hour10 x_user1_load7_hour11
  x_user1_load7_hour12 x_user1_load7_hour13 x_user1_load7_hour14
General

End